
Gurobi 10.0.1 (linux64) logging started Tue Sep 12 17:30:04 2023

Set parameter LogFile to value "./log/chr12b/chr12b.log"
Set parameter TimeLimit to value 180
Gurobi Optimizer version 10.0.1 build v10.0.1rc0 (linux64)

CPU model: 12th Gen Intel(R) Core(TM) i5-12600KF, instruction set [SSE2|AVX|AVX2]
Thread count: 8 physical cores, 16 logical processors, using up to 16 threads

Optimize a model with 24 rows, 144 columns and 288 nonzeros
Model fingerprint: 0x2bac253e
Model has 1430 quadratic objective terms
Variable types: 0 continuous, 144 integer (144 binary)
Coefficient statistics:
  Matrix range     [1e+00, 1e+00]
  Objective range  [0e+00, 0e+00]
  QObjective range [2e+01, 4e+04]
  Bounds range     [1e+00, 1e+00]
  RHS range        [1e+00, 1e+00]
Found heuristic solution: objective 45540.000000
Presolve time: 0.01s
Presolved: 60 rows, 180 columns, 1790 nonzeros
Variable types: 0 continuous, 180 integer (144 binary)

Root relaxation: objective 0.000000e+00, 37 iterations, 0.00 seconds (0.00 work units)

    Nodes    |    Current Node    |     Objective Bounds      |     Work
 Expl Unexpl |  Obj  Depth IntInf | Incumbent    BestBd   Gap | It/Node Time

     0     0    0.00000    0   12 45540.0000    0.00000   100%     -    0s
H    0     0                    38134.000000    0.00000   100%     -    0s
H    0     0                    31096.000000    0.00000   100%     -    0s
H    0     0                    22184.000000    0.00000   100%     -    0s
     0     0    0.00000    0   21 22184.0000    0.00000   100%     -    0s
H    0     0                    21824.000000    0.00000   100%     -    0s
     0     0    0.00000    0   23 21824.0000    0.00000   100%     -    0s
H    0     0                    14086.000000    0.00000   100%     -    0s
     0     0    0.00000    0    7 14086.0000    0.00000   100%     -    0s
     0     0    0.00000    0   17 14086.0000    0.00000   100%     -    0s
     0     0 1572.00000    0   12 14086.0000 1572.00000  88.8%     -    0s
     0     0 1888.61637    0   11 14086.0000 1888.61637  86.6%     -    0s
     0     0 2315.04511    0   12 14086.0000 2315.04511  83.6%     -    0s
H    0     0                    13990.000000 2740.00000  80.4%     -    0s
H    0     0                    10428.000000 2740.00000  73.7%     -    0s
H    0     0                    10302.000000 2740.00000  73.4%     -    0s
     0     0 2740.00000    0   11 10302.0000 2740.00000  73.4%     -    0s
     0     0 3080.67036    0   11 10302.0000 3080.67036  70.1%     -    0s
     0     0 3081.96351    0    8 10302.0000 3081.96351  70.1%     -    0s
     0     0 3081.96351    0    8 10302.0000 3081.96351  70.1%     -    0s
     0     2 3081.96351    0    8 10302.0000 3081.96351  70.1%     -    0s
H   63    49                    10102.000000 3081.96351  69.5%  14.6    0s
* 3307     0              19    9742.0000000 5003.91707  48.6%  11.5    0s

Cutting planes:
  Gomory: 5
  Cover: 128
  Clique: 2
  MIR: 28
  StrongCG: 12
  GUB cover: 8
  Inf proof: 8
  Zero half: 1
  RLT: 7
  Relax-and-lift: 6

Explored 3400 nodes (39311 simplex iterations) in 0.20 seconds (0.23 work units)
Thread count was 16 (of 16 available processors)

Solution count 10: 9742 10102 10302 ... 38134

Optimal solution found (tolerance 1.00e-04)
Best objective 9.742000000000e+03, best bound 9.742000000000e+03, gap 0.0000%
